NAME:	U:\RGorka\Probleme\orig\N100\nc107m.dat
DIMENSION:	53
CAPACITY:	200
MAX_ROUTE_DURATION:	1236
NODE_COORD_SECTION:
0	40.0	50.0
1	45.0	68.0
2	45.0	70.0
3	42.0	66.0
4	42.0	68.0
5	42.0	65.0
6	40.0	69.0
7	40.0	66.0
8	38.0	68.0
9	38.0	70.0
10	35.0	66.0
11	35.0	69.0
12	25.0	85.0
13	22.0	75.0
14	22.0	85.0
15	20.0	80.0
16	20.0	85.0
17	18.0	75.0
18	15.0	75.0
19	15.0	80.0
20	30.0	50.0
21	30.0	52.0
22	28.0	52.0
23	28.0	55.0
24	25.0	50.0
25	25.0	52.0
26	25.0	55.0
27	23.0	52.0
28	23.0	55.0
29	20.0	50.0
30	20.0	55.0
31	10.0	35.0
32	10.0	40.0
33	8.0	40.0
34	8.0	45.0
35	5.0	35.0
36	5.0	45.0
37	2.0	40.0
38	0.0	40.0
39	0.0	45.0
40	35.0	30.0
41	35.0	32.0
42	33.0	32.0
43	33.0	35.0
44	32.0	30.0
45	30.0	30.0
46	30.0	32.0
47	30.0	35.0
48	28.0	30.0
49	28.0	35.0
50	26.0	32.0
51	25.0	30.0
52	25.0	35.0
53	44.0	5.0
54	42.0	10.0
55	42.0	15.0
56	40.0	5.0
57	40.0	15.0
58	38.0	5.0
59	38.0	15.0
60	35.0	5.0
61	50.0	30.0
62	50.0	35.0
63	50.0	40.0
64	48.0	30.0
65	48.0	40.0
66	47.0	35.0
67	47.0	40.0
68	45.0	30.0
69	45.0	35.0
70	95.0	30.0
71	95.0	35.0
72	53.0	30.0
73	92.0	30.0
74	53.0	35.0
75	45.0	65.0
76	90.0	35.0
77	88.0	30.0
78	88.0	35.0
79	87.0	30.0
80	85.0	25.0
81	85.0	35.0
82	75.0	55.0
83	72.0	55.0
84	70.0	58.0
85	68.0	60.0
86	66.0	55.0
87	65.0	55.0
88	65.0	60.0
89	63.0	58.0
90	60.0	55.0
91	60.0	60.0
92	67.0	85.0
93	65.0	85.0
94	65.0	82.0
95	62.0	80.0
96	60.0	80.0
97	60.0	85.0
98	58.0	75.0
99	55.0	80.0
100	55.0	85.0
101	85.0	25.0
102	55.0	80.0
103	8.0	45.0
104	30.0	35.0
105	45.0	35.0
106	30.0	52.0
DEMAND_SECTION:
1	1	75	850	1030	90	943	1123	90	10	0
2	4	2	665	845	90	758	938	90	10	0
3	5	3	15	195	90	16	196	90	10	0
4	7	8	108	288	90	200	380	90	20	0
5	9	6	480	660	90	572	752	90	10	0
6	10	11	294	474	90	387	567	90	10	0
7	13	17	30	210	90	34	214	90	30	0
8	14	12	504	684	90	597	777	90	10	0
9	15	16	317	497	90	412	592	90	40	0
10	18	19	127	307	90	222	402	90	20	0
11	20	24	10	190	90	15	195	90	10	0
12	21	106	850	1030	0	850	1030	90	20	0
13	23	22	665	845	90	758	938	90	10	0
14	25	27	107	287	90	199	379	90	40	0
15	28	26	480	660	90	572	752	90	20	0
16	29	30	292	472	90	387	567	90	10	0
17	31	35	129	309	90	224	404	90	20	0
18	32	33	31	211	90	33	213	90	30	0
19	34	103	694	874	0	694	874	90	20	0
20	37	38	319	499	90	411	591	90	20	0
21	39	36	506	686	90	601	781	90	20	0
22	41	40	111	291	90	203	383	90	10	0
23	43	42	16	196	90	19	199	90	10	0
24	44	46	296	476	90	389	569	90	10	0
25	45	48	481	661	90	573	753	90	10	0
26	47	104	947	1127	0	947	1127	90	10	0
27	51	50	666	846	90	758	938	90	10	0
28	52	49	851	1031	90	944	1124	90	10	0
29	54	53	132	312	90	227	407	90	40	0
30	56	58	321	501	90	413	593	90	30	0
31	57	55	35	215	90	37	217	90	40	0
32	60	59	506	686	90	606	786	90	20	0
33	61	64	481	661	90	573	753	90	10	0
34	63	62	105	285	90	200	380	90	50	0
35	67	65	12	192	90	13	193	90	10	0
36	68	66	666	846	90	761	941	90	10	0
37	69	105	853	1033	0	853	1033	90	10	0
38	70	73	332	512	90	425	605	90	30	0
39	74	72	293	473	90	388	568	90	50	0
40	76	71	142	322	90	237	417	90	10	0
41	77	79	519	699	90	610	790	90	10	0
42	80	101	705	885	0	705	885	90	10	0
43	81	78	47	227	90	50	230	90	30	0
44	82	84	305	485	90	401	581	90	20	0
45	85	88	494	674	90	587	767	90	30	0
46	86	83	116	296	90	212	392	90	10	0
47	89	91	680	860	90	773	953	90	10	0
48	90	87	20	200	90	25	205	90	10	0
49	92	93	315	495	90	407	587	90	20	0
50	95	94	128	308	90	221	401	90	30	0
51	97	100	502	682	90	597	777	90	30	0
52	98	96	30	210	90	36	216	90	20	0
53	99	102	692	872	0	692	872	90	10	0
EOF
